benchmarks_CP/INST_36x36/35/inst36x36_35_89.dzn
S=6;
start=[|
-1,	-1,	25,	22,	-1,	-1,	-1,	-1,	30,	1,	-1,	18,	-1,	24,	-1,	-1,	-1,	9,	7,	-1,	21,	-1,	13,	35,	-1,	-1,	-1,	-1,	-1,	14,	-1,	5,	16,	28,	10,	12|
-1,	13,	-1,	-1,	5,	-1,	8,	12,	-1,	20,	28,	31,	-1,	-1,	-1,	-1,	-1,	2,	24,	-1,	-1,	-1,	11,	-1,	7,	-1,	-1,	-1,	-1,	-1,	-1,	22,	1,	-1,	-1,	17|
7,	19,	-1,	8,	-1,	35,	29,	13,	-1,	14,	26,	-1,	-1,	-1,	34,	-1,	-1,	-1,	-1,	1,	-1,	-1,	-1,	3,	-1,	28,	36,	6,	-1,	11,	-1,	-1,	-1,	2,	-1,	21|
-1,	15,	-1,	2,	-1,	-1,	-1,	22,	11,	3,	-1,	-1,	-1,	7,	-1,	-1,	33,	-1,	10,	-1,	-1,	-1,	-1,	-1,	17,	-1,	-1,	5,	34,	21,	27,	-1,	-1,	-1,	-1,	18|
27,	-1,	-1,	-1,	-1,	-1,	-1,	24,	25,	33,	7,	21,	-1,	32,	-1,	-1,	5,	23,	-1,	-1,	-1,	-1,	34,	-1,	-1,	13,	-1,	-1,	-1,	15,	-1,	-1,	11,	8,	29,	14|
-1,	12,	-1,	-1,	-1,	-1,	15,	-1,	-1,	10,	-1,	27,	-1,	-1,	-1,	6,	-1,	-1,	20,	-1,	-1,	-1,	-1,	-1,	-1,	2,	8,	-1,	-1,	-1,	34,	36,	-1,	33,	-1,	26|
-1,	-1,	-1,	-1,	-1,	11,	-1,	-1,	-1,	12,	-1,	-1,	31,	-1,	32,	-1,	-1,	28,	-1,	21,	-1,	-1,	-1,	-1,	9,	-1,	-1,	-1,	7,	-1,	-1,	-1,	-1,	-1,	15,	-1|
25,	-1,	34,	-1,	-1,	-1,	23,	-1,	-1,	7,	-1,	-1,	-1,	5,	-1,	10,	-1,	-1,	-1,	19,	-1,	-1,	22,	14,	-1,	-1,	-1,	-1,	-1,	-1,	-1,	28,	-1,	-1,	12,	-1|
8,	17,	-1,	14,	-1,	12,	-1,	-1,	-1,	27,	-1,	-1,	-1,	-1,	-1,	-1,	18,	-1,	-1,	28,	-1,	-1,	9,	20,	4,	26,	-1,	-1,	-1,	-1,	-1,	10,	-1,	-1,	21,	-1|
-1,	-1,	18,	-1,	13,	-1,	-1,	25,	3,	-1,	-1,	-1,	-1,	-1,	36,	-1,	-1,	-1,	-1,	12,	5,	-1,	-1,	-1,	-1,	-1,	-1,	16,	-1,	28,	-1,	-1,	-1,	-1,	-1,	-1|
32,	-1,	-1,	20,	-1,	4,	-1,	-1,	8,	-1,	-1,	-1,	30,	12,	9,	26,	-1,	-1,	-1,	34,	-1,	-1,	27,	-1,	19,	25,	-1,	-1,	-1,	3,	-1,	31,	-1,	-1,	-1,	33|
36,	-1,	29,	-1,	-1,	31,	-1,	26,	19,	-1,	-1,	35,	22,	11,	-1,	7,	-1,	-1,	23,	-1,	-1,	-1,	18,	-1,	6,	-1,	-1,	-1,	-1,	27,	4,	-1,	14,	16,	-1,	-1|
-1,	-1,	-1,	-1,	-1,	-1,	6,	-1,	-1,	-1,	-1,	-1,	-1,	-1,	-1,	9,	4,	25,	34,	18,	-1,	-1,	-1,	-1,	-1,	-1,	-1,	-1,	-1,	-1,	-1,	-1,	-1,	-1,	-1,	-1|
3,	4,	27,	-1,	-1,	-1,	7,	-1,	24,	25,	10,	-1,	-1,	15,	-1,	-1,	36,	-1,	8,	2,	-1,	33,	-1,	-1,	-1,	21,	-1,	20,	-1,	1,	28,	26,	32,	-1,	-1,	-1|
-1,	25,	-1,	-1,	-1,	-1,	-1,	36,	31,	-1,	14,	-1,	-1,	19,	-1,	-1,	-1,	35,	-1,	27,	-1,	21,	29,	24,	-1,	18,	11,	-1,	-1,	8,	5,	-1,	12,	-1,	-1,	-1|
24,	-1,	1,	-1,	21,	-1,	-1,	-1,	27,	17,	16,	-1,	-1,	-1,	-1,	-1,	14,	18,	36,	-1,	-1,	-1,	-1,	-1,	-1,	3,	-1,	2,	22,	-1,	13,	-1,	-1,	-1,	19,	-1|
22,	-1,	26,	29,	9,	-1,	-1,	-1,	-1,	-1,	19,	12,	17,	-1,	-1,	2,	-1,	-1,	-1,	-1,	-1,	-1,	28,	5,	36,	15,	-1,	-1,	-1,	-1,	30,	8,	25,	14,	-1,	-1|
-1,	-1,	-1,	-1,	-1,	-1,	-1,	-1,	-1,	4,	8,	-1,	-1,	-1,	-1,	-1,	26,	-1,	-1,	31,	-1,	-1,	-1,	-1,	-1,	-1,	7,	27,	-1,	-1,	15,	1,	-1,	29,	-1,	-1|
-1,	-1,	-1,	-1,	-1,	-1,	-1,	-1,	-1,	35,	-1,	-1,	-1,	33,	-1,	36,	-1,	13,	-1,	-1,	28,	-1,	-1,	1,	-1,	-1,	-1,	-1,	-1,	-1,	-1,	-1,	-1,	-1,	5,	-1|
12,	-1,	-1,	-1,	-1,	-1,	-1,	18,	-1,	-1,	30,	6,	-1,	-1,	7,	-1,	22,	-1,	-1,	-1,	-1,	34,	-1,	-1,	-1,	36,	-1,	-1,	-1,	24,	25,	-1,	-1,	-1,	20,	-1|
21,	-1,	-1,	4,	-1,	8,	-1,	-1,	-1,	15,	25,	-1,	-1,	28,	18,	27,	-1,	12,	-1,	11,	-1,	-1,	-1,	36,	2,	-1,	16,	-1,	-1,	-1,	-1,	-1,	23,	-1,	30,	-1|
-1,	-1,	11,	-1,	-1,	-1,	-1,	-1,	-1,	-1,	-1,	34,	-1,	-1,	-1,	-1,	30,	3,	-1,	-1,	13,	2,	-1,	-1,	10,	-1,	-1,	14,	29,	-1,	-1,	-1,	-1,	-1,	-1,	-1|
-1,	-1,	6,	-1,	36,	-1,	-1,	-1,	-1,	-1,	-1,	-1,	-1,	-1,	-1,	31,	19,	10,	-1,	-1,	-1,	-1,	-1,	-1,	15,	23,	-1,	22,	3,	26,	-1,	7,	13,	12,	-1,	-1|
-1,	-1,	31,	-1,	-1,	7,	13,	-1,	36,	-1,	24,	29,	25,	1,	2,	-1,	8,	21,	15,	-1,	-1,	-1,	-1,	-1,	12,	-1,	-1,	-1,	9,	-1,	33,	-1,	19,	-1,	-1,	28|
-1,	-1,	-1,	26,	25,	-1,	32,	-1,	15,	-1,	-1,	7,	10,	-1,	-1,	-1,	-1,	-1,	-1,	3,	-1,	-1,	-1,	-1,	-1,	-1,	17,	-1,	31,	-1,	-1,	23,	-1,	-1,	-1,	-1|
-1,	11,	-1,	17,	-1,	-1,	16,	8,	-1,	-1,	-1,	14,	-1,	-1,	-1,	-1,	28,	-1,	-1,	25,	-1,	-1,	10,	-1,	-1,	-1,	-1,	-1,	23,	36,	-1,	24,	-1,	-1,	-1,	-1|
-1,	-1,	-1,	18,	-1,	22,	-1,	-1,	12,	-1,	5,	-1,	-1,	-1,	-1,	-1,	2,	-1,	1,	36,	-1,	-1,	-1,	-1,	-1,	-1,	-1,	11,	-1,	-1,	16,	-1,	-1,	-1,	-1,	-1|
2,	-1,	-1,	-1,	-1,	-1,	-1,	-1,	-1,	-1,	-1,	-1,	-1,	9,	13,	29,	12,	-1,	11,	-1,	-1,	-1,	-1,	-1,	21,	-1,	3,	-1,	-1,	-1,	22,	35,	-1,	-1,	32,	-1|
15,	-1,	-1,	-1,	-1,	-1,	25,	-1,	-1,	-1,	13,	23,	-1,	22,	16,	-1,	-1,	32,	-1,	9,	-1,	-1,	-1,	-1,	-1,	-1,	-1,	-1,	-1,	12,	-1,	11,	21,	-1,	-1,	-1|
30,	-1,	-1,	-1,	19,	-1,	-1,	-1,	-1,	29,	9,	-1,	-1,	-1,	-1,	20,	-1,	6,	35,	-1,	-1,	-1,	-1,	-1,	-1,	1,	25,	26,	-1,	-1,	-1,	-1,	5,	-1,	31,	4|
-1,	-1,	36,	-1,	-1,	-1,	-1,	10,	-1,	-1,	-1,	8,	5,	-1,	-1,	-1,	21,	4,	28,	-1,	9,	-1,	-1,	16,	-1,	-1,	-1,	15,	-1,	-1,	-1,	-1,	29,	-1,	17,	-1|
-1,	-1,	-1,	-1,	18,	-1,	-1,	33,	-1,	19,	-1,	-1,	-1,	-1,	11,	-1,	10,	15,	-1,	-1,	-1,	-1,	31,	-1,	-1,	-1,	-1,	-1,	-1,	-1,	-1,	30,	26,	-1,	-1,	23|
34,	20,	5,	-1,	-1,	17,	2,	27,	-1,	-1,	22,	-1,	7,	31,	-1,	23,	1,	14,	-1,	10,	-1,	-1,	-1,	-1,	-1,	9,	26,	-1,	4,	35,	-1,	-1,	-1,	-1,	-1,	15|
-1,	-1,	-1,	9,	-1,	-1,	-1,	-1,	-1,	-1,	34,	-1,	12,	8,	-1,	-1,	32,	-1,	-1,	-1,	-1,	-1,	-1,	-1,	-1,	7,	-1,	-1,	-1,	-1,	-1,	-1,	-1,	-1,	-1,	-1|
-1,	-1,	-1,	13,	-1,	-1,	-1,	32,	-1,	-1,	-1,	15,	27,	18,	-1,	-1,	-1,	-1,	-1,	-1,	-1,	-1,	-1,	-1,	-1,	-1,	12,	-1,	-1,	10,	31,	-1,	-1,	-1,	1,	11|
10,	-1,	15,	27,	-1,	24,	35,	-1,	26,	11,	-1,	4,	-1,	36,	-1,	-1,	9,	29,	-1,	-1,	12,	20,	7,	-1,	-1,	-1,	28,	-1,	1,	-1,	-1,	-1,	2,	22,	33,	-1|];
